701496
73,113,160,42,98,51,177,226,69,23,199,159,208,3,185,189,16,60,137,138,15,8,30,64,44,5,156,211,145,144,91,96,26,22,117,20,183,210,7,63,1,72,32,118,49,147,127,163,178,31,43,207,39,67,74,157,83,71,140,135,162,36,229,133,155,112,27,169,40,81,130,55,102,62,87,35,94,108,50,151,28,78,215,75,205,34,37,192,179,196,89,107,161,116,184,101,166,9,68,223,6,203,38,224,33,217,21,4,142,170,150,171,186,90,109,88,228,153,129,146,12,187,103,104,230,212,45,93,168,172,204,2,115,82,180,121,106,219,190,99,202,105,175,54,56,18,92,53,100,216,66,24,141,128,41,222,77,158,149,132,80,182,61,25,123,85,124,131,148,173,136,206,218,209,126,70,86,114,29,84,193,119,195,181,188,167,79,95,57,52,221,59,213,58,139,11,76,174,143,197,164,154,65,14,214,46,125,227,19,134,111,48,13,225,47,17,176,220,97,194,165,120,110,201,200,198,10,191,152,122,73